$molecule
  read mol.mol
$end

$rem
  jobtype               sp
  basis                 def2-qzvp
  method                BLYP
  ecp                   def2-ecp
  thresh                11
  scf_convergence       8
  sym_ignore            true
$end
