$molecule
  read mol.mol
$end

$rem
  jobtype               sp
  basis                 def2-qzvp
  ecp                   def2-ecp
  method                CAM-QTP01
  omega                 450
  thresh                11
  scf_convergence       8
  sym_ignore            true
$end

@@@

$molecule
  read
$end

$rem
  jobtype               sp
  basis                 def2-qzvp
  ecp                   def2-ecp
  method                CAM-QTP01
  omega                 400
  scf_guess             read
  thresh                11
  scf_convergence       8
  sym_ignore            true
$end

@@@

...
